NAME          
ROWS
 N  OBJ
 L  c1
COLUMNS
    MARKER    'MARKER'                 'INTORG'
    x[1]      c1        927
    x[1]      OBJ       -200
    x[2]      c1        297
    x[2]      OBJ       -925
    x[3]      c1        266
    x[3]      OBJ       -941
    x[4]      c1        685
    x[4]      OBJ       -704
    x[5]      c1        326
    x[5]      OBJ       -775
    x[6]      c1        302
    x[6]      OBJ       -253
    x[7]      c1        919
    x[7]      OBJ       -673
    x[8]      c1        760
    x[8]      OBJ       -809
    x[9]      c1        82
    x[9]      OBJ       -873
    x[10]     c1        995
    x[10]     OBJ       -262
    x[11]     c1        964
    x[11]     OBJ       -822
    x[12]     c1        998
    x[12]     OBJ       -209
    x[13]     c1        923
    x[13]     OBJ       -16
    x[14]     c1        762
    x[14]     OBJ       -646
    x[15]     c1        765
    x[15]     OBJ       -430
    x[16]     c1        523
    x[16]     OBJ       -581
    x[17]     c1        345
    x[17]     OBJ       -923
    x[18]     c1        326
    x[18]     OBJ       -870
    x[19]     c1        613
    x[19]     OBJ       -836
    x[20]     c1        437
    x[20]     OBJ       -476
    x[21]     c1        637
    x[21]     OBJ       -667
    x[22]     c1        83
    x[22]     OBJ       -275
    x[23]     c1        902
    x[23]     OBJ       -56
    x[24]     c1        392
    x[24]     OBJ       -424
    x[25]     c1        481
    x[25]     OBJ       -669
    x[26]     c1        791
    x[26]     OBJ       -9
    x[27]     c1        223
    x[27]     OBJ       -699
    x[28]     c1        313
    x[28]     OBJ       -704
    x[29]     c1        606
    x[29]     OBJ       -137
    x[30]     c1        605
    x[30]     OBJ       -762
    x[31]     c1        25
    x[31]     OBJ       -132
    x[32]     c1        300
    x[32]     OBJ       -597
    x[33]     c1        909
    x[33]     OBJ       -642
    x[34]     c1        956
    x[34]     OBJ       -77
    x[35]     c1        498
    x[35]     OBJ       -90
    x[36]     c1        588
    x[36]     OBJ       -357
    x[37]     c1        181
    x[37]     OBJ       -965
    x[38]     c1        62
    x[38]     OBJ       -265
    x[39]     c1        308
    x[39]     OBJ       -562
    x[40]     c1        387
    x[40]     OBJ       -153
    x[41]     c1        216
    x[41]     OBJ       -326
    x[42]     c1        432
    x[42]     OBJ       -56
    x[43]     c1        85
    x[43]     OBJ       -996
    x[44]     c1        892
    x[44]     OBJ       -135
    x[45]     c1        132
    x[45]     OBJ       -833
    x[46]     c1        886
    x[46]     OBJ       -172
    x[47]     c1        614
    x[47]     OBJ       -494
    x[48]     c1        574
    x[48]     OBJ       -615
    x[49]     c1        91
    x[49]     OBJ       -735
    x[50]     c1        699
    x[50]     OBJ       -589
    x[51]     c1        177
    x[51]     OBJ       -4
    x[52]     c1        544
    x[52]     OBJ       -556
    x[53]     c1        830
    x[53]     OBJ       -623
    x[54]     c1        996
    x[54]     OBJ       -767
    x[55]     c1        714
    x[55]     OBJ       -775
    x[56]     c1        169
    x[56]     OBJ       -558
    x[57]     c1        258
    x[57]     OBJ       -62
    x[58]     c1        601
    x[58]     OBJ       -934
    x[59]     c1        396
    x[59]     OBJ       -668
    x[60]     c1        763
    x[60]     OBJ       -805
    x[61]     c1        106
    x[61]     OBJ       -506
    x[62]     c1        748
    x[62]     OBJ       -196
    x[63]     c1        874
    x[63]     OBJ       -772
    x[64]     c1        499
    x[64]     OBJ       -560
    x[65]     c1        241
    x[65]     OBJ       -910
    x[66]     c1        217
    x[66]     OBJ       -166
    x[67]     c1        186
    x[67]     OBJ       -870
    x[68]     c1        678
    x[68]     OBJ       -989
    x[69]     c1        597
    x[69]     OBJ       -573
    x[70]     c1        74
    x[70]     OBJ       -974
    x[71]     c1        1000
    x[71]     OBJ       -212
    x[72]     c1        907
    x[72]     OBJ       -36
    x[73]     c1        69
    x[73]     OBJ       -691
    x[74]     c1        47
    x[74]     OBJ       -534
    x[75]     c1        730
    x[75]     OBJ       -212
    x[76]     c1        364
    x[76]     OBJ       -651
    x[77]     c1        157
    x[77]     OBJ       -231
    x[78]     c1        529
    x[78]     OBJ       -807
    x[79]     c1        548
    x[79]     OBJ       -290
    x[80]     c1        65
    x[80]     OBJ       -295
    x[81]     c1        257
    x[81]     OBJ       -94
    x[82]     c1        105
    x[82]     OBJ       -963
    x[83]     c1        810
    x[83]     OBJ       -463
    x[84]     c1        644
    x[84]     OBJ       -289
    x[85]     c1        58
    x[85]     OBJ       -372
    x[86]     c1        831
    x[86]     OBJ       -420
    x[87]     c1        692
    x[87]     OBJ       -388
    x[88]     c1        669
    x[88]     OBJ       -181
    x[89]     c1        251
    x[89]     OBJ       -76
    x[90]     c1        942
    x[90]     OBJ       -656
    x[91]     c1        125
    x[91]     OBJ       -673
    x[92]     c1        368
    x[92]     OBJ       -504
    x[93]     c1        182
    x[93]     OBJ       -624
    x[94]     c1        176
    x[94]     OBJ       -861
    x[95]     c1        750
    x[95]     OBJ       -27
    x[96]     c1        815
    x[96]     OBJ       -169
    x[97]     c1        111
    x[97]     OBJ       -728
    x[98]     c1        326
    x[98]     OBJ       -645
    x[99]     c1        911
    x[99]     OBJ       -388
    x[100]    c1        31
    x[100]    OBJ       -436
RHS
    rhs       c1        24610
RANGES
BOUNDS
 LO bounds    x[1]      0
 PL bounds    x[1]
 LO bounds    x[2]      0
 PL bounds    x[2]
 LO bounds    x[3]      0
 PL bounds    x[3]
 LO bounds    x[4]      0
 PL bounds    x[4]
 LO bounds    x[5]      0
 PL bounds    x[5]
 LO bounds    x[6]      0
 PL bounds    x[6]
 LO bounds    x[7]      0
 PL bounds    x[7]
 LO bounds    x[8]      0
 PL bounds    x[8]
 LO bounds    x[9]      0
 PL bounds    x[9]
 LO bounds    x[10]     0
 PL bounds    x[10]
 LO bounds    x[11]     0
 PL bounds    x[11]
 LO bounds    x[12]     0
 PL bounds    x[12]
 LO bounds    x[13]     0
 PL bounds    x[13]
 LO bounds    x[14]     0
 PL bounds    x[14]
 LO bounds    x[15]     0
 PL bounds    x[15]
 LO bounds    x[16]     0
 PL bounds    x[16]
 LO bounds    x[17]     0
 PL bounds    x[17]
 LO bounds    x[18]     0
 PL bounds    x[18]
 LO bounds    x[19]     0
 PL bounds    x[19]
 LO bounds    x[20]     0
 PL bounds    x[20]
 LO bounds    x[21]     0
 PL bounds    x[21]
 LO bounds    x[22]     0
 PL bounds    x[22]
 LO bounds    x[23]     0
 PL bounds    x[23]
 LO bounds    x[24]     0
 PL bounds    x[24]
 LO bounds    x[25]     0
 PL bounds    x[25]
 LO bounds    x[26]     0
 PL bounds    x[26]
 LO bounds    x[27]     0
 PL bounds    x[27]
 LO bounds    x[28]     0
 PL bounds    x[28]
 LO bounds    x[29]     0
 PL bounds    x[29]
 LO bounds    x[30]     0
 PL bounds    x[30]
 LO bounds    x[31]     0
 PL bounds    x[31]
 LO bounds    x[32]     0
 PL bounds    x[32]
 LO bounds    x[33]     0
 PL bounds    x[33]
 LO bounds    x[34]     0
 PL bounds    x[34]
 LO bounds    x[35]     0
 PL bounds    x[35]
 LO bounds    x[36]     0
 PL bounds    x[36]
 LO bounds    x[37]     0
 PL bounds    x[37]
 LO bounds    x[38]     0
 PL bounds    x[38]
 LO bounds    x[39]     0
 PL bounds    x[39]
 LO bounds    x[40]     0
 PL bounds    x[40]
 LO bounds    x[41]     0
 PL bounds    x[41]
 LO bounds    x[42]     0
 PL bounds    x[42]
 LO bounds    x[43]     0
 PL bounds    x[43]
 LO bounds    x[44]     0
 PL bounds    x[44]
 LO bounds    x[45]     0
 PL bounds    x[45]
 LO bounds    x[46]     0
 PL bounds    x[46]
 LO bounds    x[47]     0
 PL bounds    x[47]
 LO bounds    x[48]     0
 PL bounds    x[48]
 LO bounds    x[49]     0
 PL bounds    x[49]
 LO bounds    x[50]     0
 PL bounds    x[50]
 LO bounds    x[51]     0
 PL bounds    x[51]
 LO bounds    x[52]     0
 PL bounds    x[52]
 LO bounds    x[53]     0
 PL bounds    x[53]
 LO bounds    x[54]     0
 PL bounds    x[54]
 LO bounds    x[55]     0
 PL bounds    x[55]
 LO bounds    x[56]     0
 PL bounds    x[56]
 LO bounds    x[57]     0
 PL bounds    x[57]
 LO bounds    x[58]     0
 PL bounds    x[58]
 LO bounds    x[59]     0
 PL bounds    x[59]
 LO bounds    x[60]     0
 PL bounds    x[60]
 LO bounds    x[61]     0
 PL bounds    x[61]
 LO bounds    x[62]     0
 PL bounds    x[62]
 LO bounds    x[63]     0
 PL bounds    x[63]
 LO bounds    x[64]     0
 PL bounds    x[64]
 LO bounds    x[65]     0
 PL bounds    x[65]
 LO bounds    x[66]     0
 PL bounds    x[66]
 LO bounds    x[67]     0
 PL bounds    x[67]
 LO bounds    x[68]     0
 PL bounds    x[68]
 LO bounds    x[69]     0
 PL bounds    x[69]
 LO bounds    x[70]     0
 PL bounds    x[70]
 LO bounds    x[71]     0
 PL bounds    x[71]
 LO bounds    x[72]     0
 PL bounds    x[72]
 LO bounds    x[73]     0
 PL bounds    x[73]
 LO bounds    x[74]     0
 PL bounds    x[74]
 LO bounds    x[75]     0
 PL bounds    x[75]
 LO bounds    x[76]     0
 PL bounds    x[76]
 LO bounds    x[77]     0
 PL bounds    x[77]
 LO bounds    x[78]     0
 PL bounds    x[78]
 LO bounds    x[79]     0
 PL bounds    x[79]
 LO bounds    x[80]     0
 PL bounds    x[80]
 LO bounds    x[81]     0
 PL bounds    x[81]
 LO bounds    x[82]     0
 PL bounds    x[82]
 LO bounds    x[83]     0
 PL bounds    x[83]
 LO bounds    x[84]     0
 PL bounds    x[84]
 LO bounds    x[85]     0
 PL bounds    x[85]
 LO bounds    x[86]     0
 PL bounds    x[86]
 LO bounds    x[87]     0
 PL bounds    x[87]
 LO bounds    x[88]     0
 PL bounds    x[88]
 LO bounds    x[89]     0
 PL bounds    x[89]
 LO bounds    x[90]     0
 PL bounds    x[90]
 LO bounds    x[91]     0
 PL bounds    x[91]
 LO bounds    x[92]     0
 PL bounds    x[92]
 LO bounds    x[93]     0
 PL bounds    x[93]
 LO bounds    x[94]     0
 PL bounds    x[94]
 LO bounds    x[95]     0
 PL bounds    x[95]
 LO bounds    x[96]     0
 PL bounds    x[96]
 LO bounds    x[97]     0
 PL bounds    x[97]
 LO bounds    x[98]     0
 PL bounds    x[98]
 LO bounds    x[99]     0
 PL bounds    x[99]
 LO bounds    x[100]    0
 PL bounds    x[100]
ENDATA
